QBPP_HJ+_45_025_20_5
45 96 1909
16 4 46 41 11 8 25 33 25 8 24 13 5 2 27 2 42 7 12 37 26 10 2 19 25 9 34 48 27 8 32 8 6 48 22 23 17 22 11 44 9 36 46 29 7
    0   96    0    0   53    0    0   41    0    0    0    0    0    0    0    0    0    0    0    0    0   82    0   33    0    0    0    9   61    0   46    0    0    0    0    0    0    0   17    0    0    0   37    0   30
   96    0    0    0   11    0    0    0    0    0    0    0    0   82    0   12    0    5   56    0   78    0    0    0   35    0    0    0   55   66    0    0    0    0    0   40    0   11    0    4    0    0    0    0   53
    0    0    0    0  100    0    3   90    0    0    0    0    0    5    0    0   12    0    0    0    0    0    0   95    0    0    0   71   25   87    0    0    0    0    0    0    0   70    0    0    0   67    0   12    0
    0    0    0    0    0    0    0    0    0    0    0    0    0    0    0    0   34    0    0   19    0    0    0    0   17    0    0   43   26    0   78    0    0   30    0    0    0    0    0    0   18    0    0    0    0
   53   11  100    0    0    0    0    0    0    0    0    2    0    0   33    0    0    0    0    0   45    0   91    0    0   13    0    0    0    0    0    0   40    0    0    0   89    0    0    0   57    0    0   63    0
    0    0    0    0    0    0    0    0    0    4   14   19   97    0   45    0    0    0    0    0    0   79    0    0    0    0    0   97    0    0   32    0    0    0    0    0    0    0    0   17    0   84    0    0    0
    0    0    3    0    0    0    0    0    0    0    0    0   97    0    0    0    0    0    0    0    0    0    0   34    0    7   67    0    0    0    0    0    0    0   83    0   92    0    0   58    0    0    0    0   72
   41    0   90    0    0    0    0    0    0    0    0    0    0    0    0    0    0    0   44    0    0   95    0    0    0    0   83    0    0    0    0    0   50    0    0    0    0    0   65    0    0   41   76    0    0
    0    0    0    0    0    0    0    0    0    0   34    0    0    0   80    0    0    0    0   12    0    0    0   16    0    0    0    0    0    0    0    0   24    0    0    0    0   44   95   61    0    0    0   27   35
    0    0    0    0    0    4    0    0    0    0    0    0    0   38    0    0    0   42    0    0    0    0    0   76   51    0    0    0    0    0    0    0    0    0    9    0    0    0    0    0    0    0   22    0    0
    0    0    0    0    0   14    0    0   34    0    0    0    0    0    0    0   71    0    0    0    0    0    0    0    0    0    0    0   38   72   45    0    0    0    0    0    0   73    0    0    0    0    0   30    0
    0    0    0    0    2   19    0    0    0    0    0    0    0    0   89    0    0   32    0   38    0   85    0    0    0   65    0    0    0   83    0    0   68    0   18    0    0    0    0    0    0    0    0    0    0
    0    0    0    0    0   97   97    0    0    0    0    0    0    0    0    0    0    0  100    0    0    0    0    0   38    0    0   13    0    0    0    0    0    0    0    0    0    0    0    0    0    0    0    0    0
    0   82    5    0    0    0    0    0    0   38    0    0    0    0    0    0    0    0    0    0    0    0    0   63   42    0    0   85    0    0    0    0    0    0    0    0    0    3   56    0    0    0    0    0   74
    0    0    0    0   33   45    0    0   80    0    0   89    0    0    0    0    0   27    0    0    0    0    0    0    0    0    0    0   93    0    0    0    0    0    0    0    0    0    0    0    0    0    0    0    0
    0   12    0    0    0    0    0    0    0    0    0    0    0    0    0    0   83    0    0    0    0    0   33    0    0    0   46    0    0    0    0    0   14    0   43    9    0    0    0    0    0    0    0    0    0
    0    0   12   34    0    0    0    0    0    0   71    0    0    0    0   83    0    0    0    0   65   40   36    0    0    0    0   54    0    0    0    9   34   61    0    0   72   21    0    0    0   74    0   26   91
    0    5    0    0    0    0    0    0    0   42    0   32    0    0   27    0    0    0   61    0   35    0   21    0    0    0   12   14    0    0    0    0   95    0    0    0    0    0    0    0    0   18    0    0   49
    0   56    0    0    0    0    0   44    0    0    0    0  100    0    0    0    0   61    0   77   57    0    0    0   65    0    0    0    0  100    0    0    0   17    0    0    0    0   47   10    0    0    0    0   43
    0    0    0   19    0    0    0    0   12    0    0   38    0    0    0    0    0    0   77    0    0   40   42    0    0    0    0   88    0    0   44    0   24    0    0    0    0    0    0    0    0   14    0    0    0
    0   78    0    0   45    0    0    0    0    0    0    0    0    0    0    0   65   35   57    0    0    0    0   29   78    0    0    0    0    0    0   17   50   54   29    0    0    0    0  100    0   25    0    0    0
   82    0    0    0    0   79    0   95    0    0    0   85    0    0    0    0   40    0    0   40    0    0    0    0   81    0   36    0    0    0    0   80   35   52    0    0   96   55    0    0    0    0   14    0    0
    0    0    0    0   91    0    0    0    0    0    0    0    0    0    0   33   36   21    0   42    0    0    0    0    0    0    0    0    0   98    0    0    0    0   27    0    0    0   63    0    0    0    0    0    0
   33    0   95    0    0    0   34    0   16   76    0    0    0   63    0    0    0    0    0    0   29    0    0    0    0    0   32    0    0    0    0    0    0    0    0    0    0    0    0    0    0    0    0    0   38
    0   35    0   17    0    0    0    0    0   51    0    0   38   42    0    0    0    0   65    0   78   81    0    0    0    0   80    0    0    0    0   39   81    0    0    0    0   62    0   66    0    0    0    0   41
    0    0    0    0   13    0    7    0    0    0    0   65    0    0    0    0    0    0    0    0    0    0    0    0    0    0   33    0    0    0    0   98    0    0    0    0    0   50   33    0   70    0    0    0    6
    0    0    0    0    0    0   67   83    0    0    0    0    0    0    0   46    0   12    0    0    0   36    0   32   80   33    0    0    0    0    0    0    0   71    0   75    0    0    0    0    0    0    0    0   26
    9    0   71   43    0   97    0    0    0    0    0    0   13   85    0    0   54   14    0   88    0    0    0    0    0    0    0    0    0   34    0    0    0    0    0   56    0    0    0   84   37    0    0    0    0
   61   55   25   26    0    0    0    0    0    0   38    0    0    0   93    0    0    0    0    0    0    0    0    0    0    0    0    0    0    0   57    0   80    0    0    0    0    0   23    0    0    0    0    0    0
    0   66   87    0    0    0    0    0    0    0   72   83    0    0    0    0    0    0  100    0    0    0   98    0    0    0    0   34    0    0    0    9    0    0   56    0    0   56    0    0    0    0    4    0    0
   46    0    0   78    0   32    0    0    0    0   45    0    0    0    0    0    0    0    0   44    0    0    0    0    0    0    0    0   57    0    0    0   43    0    0   50   60    0    5    0    0    0    0    0   29
    0    0    0    0    0    0    0    0    0    0    0    0    0    0    0    0    9    0    0    0   17   80    0    0   39   98    0    0    0    9    0    0   75   43    0    9    0    0    0    0   66   73    0    0   83
    0    0    0    0   40    0    0   50   24    0    0   68    0    0    0   14   34   95    0   24   50   35    0    0   81    0    0    0   80    0   43   75    0    0   32    0    0    0    0    0    0   18   53   84   18
    0    0    0   30    0    0    0    0    0    0    0    0    0    0    0    0   61    0   17    0   54   52    0    0    0    0   71    0    0    0    0   43    0    0    0    0   98    0    0   93    0    3   62    0    0
    0    0    0    0    0    0   83    0    0    9    0   18    0    0    0   43    0    0    0    0   29    0   27    0    0    0    0    0    0   56    0    0   32    0    0    0   35    0   42    0    0   88   33    0    0
    0   40    0    0    0    0    0    0    0    0    0    0    0    0    0    9    0    0    0    0    0    0    0    0    0    0   75   56    0    0   50    9    0    0    0    0    0    0    0    0    0   29   81    0    0
    0    0    0    0   89    0   92    0    0    0    0    0    0    0    0    0   72    0    0    0    0   96    0    0    0    0    0    0    0    0   60    0    0   98   35    0    0   15    0    0   79   37    0    0   52
    0   11   70    0    0    0    0    0   44    0   73    0    0    3    0    0   21    0    0    0    0   55    0    0   62   50    0    0    0   56    0    0    0    0    0    0   15    0    0    6    0    0    0    0    0
   17    0    0    0    0    0    0   65   95    0    0    0    0   56    0    0    0    0   47    0    0    0   63    0    0   33    0    0   23    0    5    0    0    0   42    0    0    0    0    0    0    0    0   24    0
    0    4    0    0    0   17   58    0   61    0    0    0    0    0    0    0    0    0   10    0  100    0    0    0   66    0    0   84    0    0    0    0    0   93    0    0    0    6    0    0    0   97    0   44    0
    0    0    0   18   57    0    0    0    0    0    0    0    0    0    0    0    0    0    0    0    0    0    0    0    0   70    0   37    0    0    0   66    0    0    0    0   79    0    0    0    0    0   36    0    0
    0    0   67    0    0   84    0   41    0    0    0    0    0    0    0    0   74   18    0   14   25    0    0    0    0    0    0    0    0    0    0   73   18    3   88   29   37    0    0   97    0    0    0    0   48
   37    0    0    0    0    0    0   76    0   22    0    0    0    0    0    0    0    0    0    0    0   14    0    0    0    0    0    0    0    4    0    0   53   62   33   81    0    0    0    0   36    0    0    0    0
    0    0   12    0   63    0    0    0   27    0   30    0    0    0    0    0   26    0    0    0    0    0    0    0    0    0    0    0    0    0    0    0   84    0    0    0    0    0   24   44    0    0    0    0    0
   30   53    0    0    0    0   72    0   35    0    0    0    0   74    0    0   91   49   43    0    0    0    0   38   41    6   26    0    0    0   29   83   18    0    0    0   52    0    0    0    0   48    0    0    0
